
Gurobi 9.1.2 (linux64) logging started Sun Mar 20 03:48:51 2022

Changed value of parameter LogFile to ls_sym_v-(2, 3).log
   Prev:   Default: 
Changed value of parameter MIPFocus to 1
   Prev: 0  Min: 0  Max: 3  Default: 0
Changed value of parameter Threads to 4
   Prev: 0  Min: 0  Max: 1024  Default: 0
Changed value of parameter TimeLimit to 1800.0
   Prev: inf  Min: 0.0  Max: inf  Default: inf
Warning: variable name "X[(1, 0),(0, 0)]" has a space
Warning: constraint name "flow-constr-t0-v(3, 6)" has a space
Warning: to let Gurobi read it back, use rlp format
Gurobi Optimizer version 9.1.2 build v9.1.2rc0 (linux64)
Thread count: 16 physical cores, 32 logical processors, using up to 4 threads
Optimize a model with 3609 rows, 3264 columns and 12342 nonzeros
Model fingerprint: 0xfb925e5e
Variable types: 384 continuous, 2880 integer (2880 binary)
Coefficient statistics:
  Matrix range     [1e+00, 7e+04]
  Objective range  [2e-01, 2e-01]
  Bounds range     [1e+00, 3e+04]
  RHS range        [1e+00, 7e+04]
Presolve removed 429 rows and 450 columns
Presolve time: 0.06s
Presolved: 3180 rows, 2814 columns, 20968 nonzeros
Variable types: 384 continuous, 2430 integer (2430 binary)

Root relaxation: objective 6.400000e+01, 150 iterations, 0.00 seconds

    Nodes    |    Current Node    |     Objective Bounds      |     Work
 Expl Unexpl |  Obj  Depth IntInf | Incumbent    BestBd   Gap | It/Node Time

     0     0   64.00000    0   22          -   64.00000      -     -    0s
H    0     0                     335.1666666   64.00000  80.9%     -    0s
H    0     0                     334.8333333   64.00000  80.9%     -    0s
H    0     0                     145.3333333   64.00000  56.0%     -    0s
H    0     0                     113.3333333   64.00000  43.5%     -    0s
H    0     0                     107.3333333   64.00000  40.4%     -    0s
H    0     0                      91.5000000   64.00000  30.1%     -    0s
H    0     0                      89.3333333   64.00000  28.4%     -    0s
     0     0   64.00000    0   54   89.33333   64.00000  28.4%     -    0s
H    0     0                      87.5000000   64.00000  26.9%     -    0s
     0     0   64.00000    0   57   87.50000   64.00000  26.9%     -    0s
     0     0   64.00000    0   18   87.50000   64.00000  26.9%     -    0s
H    0     0                      86.6666667   64.00000  26.2%     -    0s
H    0     0                      85.6666667   64.00000  25.3%     -    0s
     0     0   64.00000    0   24   85.66667   64.00000  25.3%     -    0s
H    0     0                      81.5000000   64.00000  21.5%     -    0s
     0     0   64.00000    0   20   81.50000   64.00000  21.5%     -    0s
H    0     0                      77.8333333   64.00000  17.8%     -    0s
     0     0   64.00000    0   42   77.83333   64.00000  17.8%     -    0s
     0     0   64.00000    0   22   77.83333   64.00000  17.8%     -    0s
     0     0   64.00000    0   27   77.83333   64.00000  17.8%     -    0s
     0     0   64.00000    0   34   77.83333   64.00000  17.8%     -    0s
H    0     0                      75.1666667   64.00000  14.9%     -    1s
H    0     0                      74.3333333   64.00000  13.9%     -    1s
H    0     2                      68.5833333   64.00000  6.68%     -    1s
     0     2   64.00000    0   22   68.58333   64.00000  6.68%     -    1s
H    1     4                      68.2500000   64.00000  6.23%   307    1s
H    2     4                      67.8333333   64.00000  5.65%   154    1s
H   31    36                      67.0833333   64.00000  4.60%  15.9    1s
H   34    36                      67.0238095   64.00000  4.51%  14.8    1s
H   64    74                      66.2619048   64.00000  3.41%   9.9    2s
H   73   167                      65.9444444   64.00000  2.95%   9.0    2s
H  166   278                      65.9230769   64.00000  2.92%   5.7    3s
H  189   278                      65.7777778   64.00000  2.70%   5.3    3s
H  191   278                      65.7222222   64.00000  2.62%   5.3    3s
H  223   278                      65.6666667   64.00000  2.54%   4.9    3s
H  285  1140                      65.5416667   64.00000  2.35%   4.8    4s
H  300  1139                      65.2500000   64.00000  1.92%   4.8    4s
H 1240  1276                      65.1666667   64.00000  1.79%   4.0    4s
H 1241  1139                      64.6666667   64.00000  1.03%   4.0    4s
  1434  1090   64.00000   66   48   64.66667   64.00000  1.03%   3.9    5s
H 1532  1104                      64.5000000   64.00000  0.78%  22.0    7s
H 1597  1120                      64.1212121   64.00000  0.19%  24.5    8s
H 1625  1341                      64.0000000   64.00000  0.00%  24.5    9s

Cutting planes:
  Cover: 35
  Implied bound: 72
  Clique: 71
  MIR: 36
  Flow cover: 61
  GUB cover: 1
  RLT: 16
  Relax-and-lift: 71

Explored 1980 nodes (53843 simplex iterations) in 9.69 seconds
Thread count was 4 (of 32 available processors)

Solution count 10: 64 64.1212 64.5 ... 65.7778

Optimal solution found (tolerance 1.00e-04)
Best objective 6.400000000000e+01, best bound 6.400000000000e+01, gap 0.0000%
